\* Minimax Goal Programming LP Framework *\
Minimize
Minimax_objective: Dec_X_X3
Subject To
A_row_1: 12 Dec_X_X1 + 4 Dec_X_X2 >= 48
A_row_2: 4 Dec_X_X1 + 4 Dec_X_X2 >= 28
A_row_3: 10 Dec_X_X1 + 20 Dec_X_X2 >= 100
A_row_4: 0.1639 Dec_X_X1 + 0.1311 Dec_X_X2 - Dec_X_X3 <= 1
A_row_5: 0.1151 Dec_X_X1 + 0.1799 Dec_X_X2 - Dec_X_X3 <= 1
A_row_6: 0.1 Dec_X_X1 + 0.225 Dec_X_X2 - Dec_X_X3 <= 1
End
